20 7
91 48 51 56 149 42 56
1 5 4 2 4 3 5 5 3 5 4 5 2 4 5 1 2 5 1 2
23 11 14 14 32 10 12
16 11 13 18 15 20 18
17 7 9 13 13 16 19
10 11 12 18 10 20 12
13 11 9 13 6 12 14
14 3 2 9 8 10 16
20 4 4 3 13 5 21
6 11 10 17 4 17 8
8 9 8 15 2 16 9
8 10 10 17 7 18 10
17 4 2 6 10 6 18
4 13 13 19 5 20 5
6 13 13 20 8 21 8
17 4 6 10 12 12 19
2 18 17 23 8 24 1
9 9 9 16 7 17 11
11 9 7 13 3 13 12
15 6 8 13 11 15 17
17 3 1 6 10 7 18
10 9 8 13 2 14 11
11 7 7 14 7 15 13
